25138
124 125 130 129 136 141 138 139 142 97 96 95 76 134 135 133 132 92 131 93 90 94 77 78 140 137 79 1 33 42 35 14 8 46 47 45 44 43 54 31 29 30 13 17 6 5 62 4 37 39 38 32 40 34 36 2 63 3 7 16 61 15 28 27 18 60 19 59 20 58 9 49 50 48 55 41 53 51 70 80 66 67 23 22 21 10 64 25 24 0 12 11 52 57 26 81 82 68 65 86 71 85 83 108 56 143 103 106 105 104 98 99 100 101 102 69 113 145 144 146 147 150 149 110 151 118 160 159 158 116 117 119 89 88 87 120 121 123 164 162 161 157 156 122 166 165 167 170 169 168 163 174 173 172 155 112 154 148 171 152 153 115 114 111 109 107 84 72 73 74 91 75 128 127 126 
